4 3 100 1 2
0 1000
 1 40.00 50.00 0.00 0.00 0.00 0 0 0 960
 2 25.00 85.00 10.00 20.00 40.00 1 1 1 613 853
 3 22.00 75.00 10.00 30.00 19.00 1 1 1 92 332
 4 22.00 85.00 10.00 10.00 9.00 1 1 1 411 651
 5 20.00 80.00 10.00 40.00 10.00 1 1 1 584 824
 6 20.00 85.00 10.00 20.00 20.00 1 1 1 40 280
 7 18.00 75.00 10.00 20.00 23.00 1 1 1 328 568
 8 15.00 75.00 10.00 20.00 9.00 1 1 1 240 480
 9 15.00 80.00 10.00 10.00 21.00 1 1 1 307 547
 10 10.00 35.00 10.00 20.00 6.00 1 1 1 311 551
 11 10.00 40.00 10.00 30.00 10.00 1 1 1 459 699
 12 8.00 40.00 10.00 40.00 13.00 1 1 1 135 375
 13 8.00 45.00 10.00 20.00 6.00 1 1 1 163 403
 14 5.00 35.00 10.00 10.00 16.00 1 1 1 593 833
 15 5.00 45.00 10.00 10.00 30.00 1 1 1 35 275
 16 2.00 40.00 10.00 20.00 20.00 1 1 1 114 354
 17 0.00 40.00 10.00 20.00 10.00 1 1 1 195 435
 18 0.00 45.00 10.00 20.00 14.00 1 1 1 643 883
 19 44.00 5.00 10.00 20.00 17.00 1 1 1 275 515
 20 42.00 10.00 10.00 40.00 10.00 1 1 1 194 434
 21 42.00 15.00 10.00 10.00 10.00 1 1 1 477 717
 22 40.00 5.00 10.00 10.00 20.00 1 1 1 155 395
 23 40.00 15.00 10.00 40.00 19.00 1 1 1 315 555
 24 38.00 5.00 10.00 30.00 30.00 1 1 1 141 381
 25 38.00 15.00 10.00 10.00 20.00 1 1 1 621 861
 26 35.00 5.00 10.00 20.00 40.00 1 1 1 664 904
 27 95.00 30.00 10.00 30.00 27.00 1 1 1 469 709
 28 95.00 35.00 10.00 20.00 5.00 1 1 1 86 326
 29 92.00 30.00 10.00 10.00 20.00 1 1 1 89 329
 30 90.00 35.00 10.00 10.00 40.00 1 1 1 134 374
 31 88.00 30.00 10.00 10.00 20.00 1 1 1 186 426
 32 88.00 35.00 10.00 20.00 10.00 1 1 1 105 345
 33 87.00 30.00 10.00 10.00 10.00 1 1 1 561 801
 34 85.00 25.00 10.00 10.00 7.00 1 1 1 51 291
 35 85.00 35.00 10.00 30.00 16.00 1 1 1 427 667
 36 67.00 85.00 10.00 20.00 14.00 1 1 1 597 837
 37 65.00 85.00 10.00 40.00 26.00 1 1 1 43 283
 38 65.00 82.00 10.00 10.00 28.00 1 1 1 497 737
 39 62.00 80.00 10.00 30.00 5.00 1 1 1 218 458
 40 60.00 80.00 10.00 10.00 23.00 1 1 1 36 276
 41 60.00 85.00 10.00 30.00 20.00 1 1 1 269 509
 42 58.00 75.00 10.00 20.00 40.00 1 1 1 316 556
 43 55.00 80.00 10.00 10.00 10.00 1 1 1 33 273
 44 55.00 85.00 10.00 20.00 3.00 1 1 1 514 754
 45 55.00 82.00 10.00 10.00 35.00 1 1 1 157 397
 46 20.00 82.00 10.00 10.00 2.00 1 1 1 37 277
 47 18.00 80.00 10.00 10.00 19.00 1 1 1 429 669
 48 2.00 45.00 10.00 10.00 16.00 1 1 1 45 285
 49 42.00 5.00 10.00 10.00 10.00 1 1 1 664 904
 50 42.00 12.00 10.00 10.00 10.00 1 1 1 380 620
 51 72.00 35.00 10.00 30.00 13.00 1 1 1 447 687
 52 55.00 20.00 10.00 19.00 20.00 1 1 1 266 506
 53 25.00 30.00 10.00 3.00 25.00 1 1 1 115 355
 54 20.00 50.00 10.00 5.00 3.00 1 1 1 315 555
 55 55.00 60.00 10.00 16.00 30.00 1 1 1 541 781
 56 30.00 60.00 10.00 16.00 10.00 1 1 1 539 779
 57 50.00 35.00 10.00 19.00 20.00 1 1 1 497 737
 58 30.00 25.00 10.00 23.00 10.00 1 1 1 337 577
 59 15.00 10.00 10.00 20.00 10.00 1 1 1 662 902
 60 10.00 20.00 10.00 19.00 20.00 1 1 1 42 282
 61 15.00 60.00 10.00 17.00 20.00 1 1 1 634 874
 62 45.00 65.00 10.00 9.00 20.00 1 1 1 198 438
 63 65.00 35.00 10.00 3.00 30.00 1 1 1 107 347
 64 65.00 20.00 10.00 6.00 10.00 1 1 1 39 279
 65 45.00 30.00 10.00 17.00 31.00 1 1 1 131 371
 66 35.00 40.00 10.00 16.00 23.00 1 1 1 11 251
 67 41.00 37.00 10.00 16.00 20.00 1 1 1 506 746
 68 64.00 42.00 10.00 9.00 8.00 1 1 1 208 448
 69 40.00 60.00 10.00 21.00 30.00 1 1 1 552 792
 70 31.00 52.00 10.00 27.00 9.00 1 1 1 97 337
 71 35.00 69.00 10.00 23.00 10.00 1 1 1 690 930
 72 65.00 55.00 10.00 14.00 30.00 1 1 1 181 421
 73 63.00 65.00 10.00 8.00 19.00 1 1 1 27 267
 74 2.00 60.00 10.00 5.00 30.00 1 1 1 226 466
 75 20.00 20.00 10.00 8.00 10.00 1 1 1 585 825
 76 5.00 5.00 10.00 16.00 13.00 1 1 1 172 412
 77 60.00 12.00 10.00 31.00 10.00 1 1 1 208 448
 78 23.00 3.00 10.00 7.00 10.00 1 1 1 660 900
 79 8.00 56.00 10.00 27.00 27.00 1 1 1 305 545
 80 6.00 68.00 10.00 30.00 20.00 1 1 1 292 532
 81 47.00 47.00 10.00 13.00 16.00 1 1 1 702 942
 82 49.00 58.00 10.00 10.00 20.00 1 1 1 295 535
 83 27.00 43.00 10.00 9.00 10.00 1 1 1 92 332
 84 37.00 31.00 10.00 14.00 10.00 1 1 1 45 285
 85 57.00 29.00 10.00 18.00 30.00 1 1 1 335 575
 86 63.00 23.00 10.00 2.00 10.00 1 1 1 284 524
 87 21.00 24.00 10.00 28.00 14.00 1 1 1 289 529
 88 12.00 24.00 10.00 13.00 9.00 1 1 1 299 539
 89 24.00 58.00 10.00 19.00 15.00 1 1 1 200 440
 90 67.00 5.00 10.00 25.00 10.00 1 1 1 653 893
 91 37.00 47.00 10.00 6.00 18.00 1 1 1 299 539
 92 49.00 42.00 10.00 13.00 40.00 1 1 1 659 899
 93 53.00 43.00 10.00 14.00 6.00 1 1 1 14 254
 94 61.00 52.00 10.00 3.00 17.00 1 1 1 688 928
 95 57.00 48.00 10.00 23.00 20.00 1 1 1 332 572
 96 56.00 37.00 10.00 6.00 30.00 1 1 1 40 280
 97 55.00 54.00 10.00 26.00 3.00 1 1 1 502 742
 98 4.00 18.00 10.00 35.00 3.00 1 1 1 487 727
 99 26.00 52.00 10.00 9.00 16.00 1 1 1 112 352
 100 26.00 35.00 10.00 15.00 20.00 1 1 1 248 488
 101 31.00 67.00 10.00 3.00 8.00 1 1 1 690 930
